Au Ga
 1.0000000000000000
     4.1937497725517607   -0.0000000000000000   -0.0000000000000007
     0.0000000000000001    4.1022004605134006   -0.0000000000000002
     0.0000000000000001   -0.0000000000000001    4.1937497725517607
 Au  Ga 
   2   2
Cartesian
  2.0968748862758808  2.0511002302567003  2.0968748862758799
  0.0000000000000008  2.0511002302567003  0.0000000000000004
  2.0968748862758808 -0.0000000000000000  0.0000000000000004
  0.0000000000000008 -0.0000000000000000  2.0968748862758799
